Welcome to the CBC MILP Solver 
Version: Trunk
Build Date: Apr 16 2020 

Starting solution of the Linear programming relaxation problem using Primal Simplex

Using Python-MIP package version 1.8.1
Machines:  3 Jobs:  3
Order: 
Job  0 : machine 1 ( 7 ) machine 2 ( 7 ) machine 0 ( 1 ) 
Job  1 : machine 1 ( 4 ) machine 0 ( 3 ) machine 2 ( 7 ) 
Job  2 : machine 1 ( 7 ) machine 2 ( 6 ) machine 0 ( 2 ) 
K:  33
Job  0 , e: machine  0 ( 14 ) machine  1 ( 0 ) machine  2 ( 7 ) 
Job  1 , e: machine  0 ( 4 ) machine  1 ( 0 ) machine  2 ( 7 ) 
Job  2 , e: machine  0 ( 13 ) machine  1 ( 0 ) machine  2 ( 7 ) 
Job  0 , f: machine  0 ( 0 ) machine  1 ( 8 ) machine  2 ( 1 ) 
Job  1 , f: machine  0 ( 7 ) machine  1 ( 10 ) machine  2 ( 0 ) 
Job  2 , f: machine  0 ( 0 ) machine  1 ( 8 ) machine  2 ( 2 ) 
EST and LST:
Job: 0 Machine: 0 EST: 14 LST: 32
Job: 0 Machine: 1 EST: 0 LST: 18
Job: 0 Machine: 2 EST: 7 LST: 25
Job: 1 Machine: 0 EST: 4 LST: 23
Job: 1 Machine: 1 EST: 0 LST: 19
Job: 1 Machine: 2 EST: 7 LST: 26
Job: 2 Machine: 0 EST: 13 LST: 31
Job: 2 Machine: 1 EST: 0 LST: 18
Job: 2 Machine: 2 EST: 7 LST: 25
Order:
Job: 0 Machine: 0 = 2 
Job: 0 Machine: 1 = 0 
Job: 0 Machine: 2 = 1 
Job: 1 Machine: 0 = 1 
Job: 1 Machine: 1 = 0 
Job: 1 Machine: 2 = 2 
Job: 2 Machine: 0 = 2 
Job: 2 Machine: 1 = 0 
Job: 2 Machine: 2 = 1 
Distances:
Job 0, Machine 1 -> Machine 2: distance 7
Job 0, Machine 1 -> Machine 0: distance 14
Job 0, Machine 2 -> Machine 0: distance 7
Job 1, Machine 1 -> Machine 0: distance 4
Job 1, Machine 1 -> Machine 2: distance 7
Job 1, Machine 0 -> Machine 2: distance 3
Job 2, Machine 1 -> Machine 2: distance 7
Job 2, Machine 1 -> Machine 0: distance 13
Job 2, Machine 2 -> Machine 0: distance 6
McCormic linearization
[(0, 1), (1, 2), (0, 2), (2, 1), (2, 0), (1, 0), (1, 1)]
obj:  0.0
solutions:  1
+ 0.14285714285714285x(0,1) + 0.14285714285714285x(2,1) 
C:  18.5
x(0,0) = 17.50	 x(0,1) = 3.50	 x(0,2) = 10.50	 
x(1,0) = 8.50	 x(1,1) = 4.50	 x(1,2) = 11.50	 
x(2,0) = 16.50	 x(2,1) = 3.50	 x(2,2) = 10.50	 
y(0,1,0) = 0.00	 y(1,0,0) = 1.00	 
y(0,2,0) = 0.90	 y(2,0,0) = 0.10	 
y(1,2,0) = 0.59	 y(2,1,0) = 0.41	 
y(0,1,1) = 0.22	 y(1,0,1) = 0.78	 
y(0,2,1) = 0.50	 y(2,0,1) = 0.50	 
y(1,2,1) = 0.36	 y(2,1,1) = 0.64	 
y(0,1,2) = 0.50	 y(1,0,2) = 0.50	 
y(0,2,2) = 0.42	 y(2,0,2) = 0.58	 
y(1,2,2) = 0.49	 y(2,1,2) = 0.51	 
obj:  0.7948717948717949
solutions:  1
+ 0.025641025641025644x(1,2) + 0.021978021978021973x(2,2) + 0.025641025641025644x(0,2) 
[(1, 2), (0, 1), (2, 1), (2, 2), (0, 2)]
cliques:  1 mip: 32
C:  21.871428571428577
x(0,0) = 20.87	 x(0,1) = 6.87	 x(0,2) = 13.87	 
x(1,0) = 7.73	 x(1,1) = 2.87	 x(1,2) = 14.87	 
x(2,0) = 18.87	 x(2,1) = 0.13	 x(2,2) = 11.97	 
y(0,1,0) = 0.00	 y(1,0,0) = 1.00	 
y(0,2,0) = 0.00	 y(2,0,0) = 1.00	 
y(1,2,0) = 0.66	 y(2,1,0) = 0.34	 
y(0,1,1) = 0.00	 y(1,0,1) = 1.00	 
y(0,2,1) = 0.04	 y(2,0,1) = 0.96	 
y(1,2,1) = 0.47	 y(2,1,1) = 0.53	 
y(0,1,2) = 0.31	 y(1,0,2) = 0.69	 
y(0,2,2) = 0.17	 y(2,0,2) = 0.83	 
y(1,2,2) = 0.62	 y(2,1,2) = 0.38	 
obj:  0.4423469387755122
solutions:  1
+ 0.25x(2,1) + 0.14285714285714288x(1,1) 
[(1, 2), (0, 2), (2, 1), (2, 0), (2, 2), (1, 0), (1, 1)]
cliques:  1 mip: 70
C:  23.258823529411764
x(0,0) = 22.26	 x(0,1) = 5.82	 x(0,2) = 15.26	 
x(1,0) = 10.09	 x(1,1) = 4.94	 x(1,2) = 13.44	 
x(2,0) = 18.02	 x(2,1) = 1.18	 x(2,2) = 12.02	 
y(0,1,0) = 0.00	 y(1,0,0) = 1.00	 
y(0,2,0) = 0.00	 y(2,0,0) = 1.00	 
y(1,2,0) = 0.94	 y(2,1,0) = 0.06	 
y(0,1,1) = 0.14	 y(1,0,1) = 0.86	 
y(0,2,1) = 0.17	 y(2,0,1) = 0.83	 
y(1,2,1) = 0.13	 y(2,1,1) = 0.87	 
y(0,1,2) = 0.65	 y(1,0,2) = 0.35	 
y(0,2,2) = 0.51	 y(2,0,2) = 0.49	 
y(1,2,2) = 0.35	 y(2,1,2) = 0.65	 
obj:  1.0000000000000004
erro
[(1, 2), (0, 1), (2, 1), (2, 2), (0, 2)]
cliques:  0 mip: 94
C:  24.407999999999998
x(0,0) = 23.41	 x(0,1) = 3.02	 x(0,2) = 14.73	 
x(1,0) = 8.65	 x(1,1) = 4.65	 x(1,2) = 11.65	 
x(2,0) = 20.73	 x(2,1) = 7.30	 x(2,2) = 14.73	 
y(0,1,0) = 0.00	 y(1,0,0) = 1.00	 
y(0,2,0) = 0.00	 y(2,0,0) = 1.00	 
y(1,2,0) = 0.95	 y(2,1,0) = 0.05	 
y(0,1,1) = 0.24	 y(1,0,1) = 0.76	 
y(0,2,1) = 0.57	 y(2,0,1) = 0.43	 
y(1,2,1) = 0.39	 y(2,1,1) = 0.61	 
y(0,1,2) = 0.28	 y(1,0,2) = 0.72	 
y(0,2,2) = 0.72	 y(2,0,2) = 0.28	 
y(1,2,2) = 0.72	 y(2,1,2) = 0.28	 
obj:  0.8650252019773464
solutions:  1
+ 0.06666666666666668x(0,1) + 0.06666666666666671x(2,1) + 0.038095238095238085x(1,1) 
[(0, 1), (1, 2), (2, 1), (1, 1), (2, 2), (0, 2)]
cliques:  1 mip: 91
C:  25.376975824971947
x(0,0) = 20.79	 x(0,1) = 4.91	 x(0,2) = 11.91	 
x(1,0) = 14.66	 x(1,1) = 10.66	 x(1,2) = 17.66	 
x(2,0) = 18.79	 x(2,1) = 3.99	 x(2,2) = 10.99	 
y(0,1,0) = 0.00	 y(1,0,0) = 1.00	 
y(0,2,0) = 0.00	 y(2,0,0) = 1.00	 
y(1,2,0) = 0.95	 y(2,1,0) = 0.05	 
y(0,1,1) = 0.86	 y(1,0,1) = 0.14	 
y(0,2,1) = 0.30	 y(2,0,1) = 0.70	 
y(1,2,1) = 0.01	 y(2,1,1) = 0.99	 
y(0,1,2) = 0.91	 y(1,0,2) = 0.09	 
y(0,2,2) = 0.21	 y(2,0,2) = 0.79	 
y(1,2,2) = 0.09	 y(2,1,2) = 0.91	 
obj:  0.999999999999999
erro
[(0, 1), (1, 2), (0, 2), (2, 1), (2, 2), (1, 1)]
cliques:  0 mip: 70
C:  26.0
x(0,0) = 19.43	 x(0,1) = 5.43	 x(0,2) = 12.43	 
x(1,0) = 13.56	 x(1,1) = 9.56	 x(1,2) = 16.56	 
x(2,0) = 18.53	 x(2,1) = 5.53	 x(2,2) = 12.53	 
y(0,1,0) = 0.00	 y(1,0,0) = 1.00	 
y(0,2,0) = 0.06	 y(2,0,0) = 0.94	 
y(1,2,0) = 0.92	 y(2,1,0) = 0.08	 
y(0,1,1) = 0.60	 y(1,0,1) = 0.40	 
y(0,2,1) = 0.28	 y(2,0,1) = 0.72	 
y(1,2,1) = 0.12	 y(2,1,1) = 0.88	 
y(0,1,2) = 0.70	 y(1,0,2) = 0.30	 
y(0,2,2) = 0.72	 y(2,0,2) = 0.28	 
y(1,2,2) = 0.30	 y(2,1,2) = 0.70	 
obj:  1.0187960661236177
erro
[(0, 1), (1, 2), (2, 1), (1, 1), (2, 2), (0, 2)]
cliques:  0 mip: 76
C:  26.0
x(0,0) = 24.33	 x(0,1) = 4.05	 x(0,2) = 11.05	 
x(1,0) = 9.87	 x(1,1) = 5.87	 x(1,2) = 16.40	 
x(2,0) = 20.60	 x(2,1) = 7.60	 x(2,2) = 14.60	 
y(0,1,0) = 0.00	 y(1,0,0) = 1.00	 
y(0,2,0) = 0.33	 y(2,0,0) = 0.67	 
y(1,2,0) = 0.68	 y(2,1,0) = 0.32	 
y(0,1,1) = 0.60	 y(1,0,1) = 0.40	 
y(0,2,1) = 0.42	 y(2,0,1) = 0.58	 
y(1,2,1) = 0.35	 y(2,1,1) = 0.65	 
y(0,1,2) = 0.67	 y(1,0,2) = 0.33	 
y(0,2,2) = 0.49	 y(2,0,2) = 0.51	 
y(1,2,2) = 0.33	 y(2,1,2) = 0.67	 
obj:  0.9999999999999997
erro
[(0, 1), (0, 2), (2, 1), (2, 2), (1, 1)]
cliques:  0 mip: 82
C:  26.0
x(0,0) = 24.41	 x(0,1) = 2.60	 x(0,2) = 9.60	 
x(1,0) = 14.15	 x(1,1) = 10.15	 x(1,2) = 18.04	 
x(2,0) = 24.00	 x(2,1) = 6.60	 x(2,2) = 13.60	 
y(0,1,0) = 0.00	 y(1,0,0) = 1.00	 
y(0,2,0) = 0.29	 y(2,0,0) = 0.71	 
y(1,2,0) = 0.71	 y(2,1,0) = 0.29	 
y(0,1,1) = 0.73	 y(1,0,1) = 0.27	 
y(0,2,1) = 0.77	 y(2,0,1) = 0.23	 
y(1,2,1) = 0.14	 y(2,1,1) = 0.86	 
y(0,1,2) = 0.88	 y(1,0,2) = 0.12	 
y(0,2,2) = 0.71	 y(2,0,2) = 0.29	 
y(1,2,2) = 0.12	 y(2,1,2) = 0.88	 
obj:  1.1188686017266924
erro
[(0, 1), (0, 0), (2, 0), (1, 1), (2, 2), (1, 0), (0, 2)]
cliques:  0 mip: 83
C:  25.999999999999996
x(0,0) = 24.12	 x(0,1) = 4.70	 x(0,2) = 13.98	 
x(1,0) = 11.13	 x(1,1) = 7.13	 x(1,2) = 14.13	 
x(2,0) = 24.00	 x(2,1) = 6.23	 x(2,2) = 13.23	 
y(0,1,0) = 0.00	 y(1,0,0) = 1.00	 
y(0,2,0) = 0.44	 y(2,0,0) = 0.56	 
y(1,2,0) = 0.59	 y(2,1,0) = 0.41	 
y(0,1,1) = 0.65	 y(1,0,1) = 0.35	 
y(0,2,1) = 0.59	 y(2,0,1) = 0.41	 
y(1,2,1) = 0.24	 y(2,1,1) = 0.76	 
y(0,1,2) = 0.39	 y(1,0,2) = 0.61	 
y(0,2,2) = 0.22	 y(2,0,2) = 0.78	 
y(1,2,2) = 0.61	 y(2,1,2) = 0.39	 
obj:  1.3404100209945247
erro
[(0, 1), (1, 2), (0, 0), (2, 1), (2, 0), (2, 2), (1, 0)]
cliques:  0 mip: 84
C:  26.0
x(0,0) = 23.02	 x(0,1) = 1.90	 x(0,2) = 10.96	 
x(1,0) = 11.48	 x(1,1) = 7.48	 x(1,2) = 14.48	 
x(2,0) = 24.00	 x(2,1) = 8.83	 x(2,2) = 15.83	 
y(0,1,0) = 0.00	 y(1,0,0) = 1.00	 
y(0,2,0) = 0.36	 y(2,0,0) = 0.64	 
y(1,2,0) = 0.50	 y(2,1,0) = 0.50	 
y(0,1,1) = 0.73	 y(1,0,1) = 0.27	 
y(0,2,1) = 0.82	 y(2,0,1) = 0.18	 
y(1,2,1) = 0.65	 y(2,1,1) = 0.35	 
y(0,1,2) = 0.43	 y(1,0,2) = 0.57	 
y(0,2,2) = 0.91	 y(2,0,2) = 0.09	 
y(1,2,2) = 0.57	 y(2,1,2) = 0.43	 
obj:  1.0
erro
[(1, 2), (0, 0), (2, 0), (2, 2), (1, 0), (0, 2)]
cliques:  0 mip: 84
C:  25.999999999999996
x(0,0) = 22.99	 x(0,1) = 3.94	 x(0,2) = 10.94	 
x(1,0) = 12.73	 x(1,1) = 8.73	 x(1,2) = 15.73	 
x(2,0) = 23.85	 x(2,1) = 6.08	 x(2,2) = 14.39	 
y(0,1,0) = 0.00	 y(1,0,0) = 1.00	 
y(0,2,0) = 0.15	 y(2,0,0) = 0.85	 
y(1,2,0) = 0.76	 y(2,1,0) = 0.24	 
y(0,1,1) = 0.79	 y(1,0,1) = 0.21	 
y(0,2,1) = 0.59	 y(2,0,1) = 0.41	 
y(1,2,1) = 0.71	 y(2,1,1) = 0.29	 
y(0,1,2) = 0.90	 y(1,0,2) = 0.10	 
y(0,2,2) = 0.39	 y(2,0,2) = 0.61	 
y(1,2,2) = 0.36	 y(2,1,2) = 0.64	 
obj:  1.0
erro
[(0, 1), (1, 2), (2, 1), (1, 1), (2, 2), (0, 2)]
cliques:  0 mip: 94
C:  25.999999999999996
x(0,0) = 23.78	 x(0,1) = 4.98	 x(0,2) = 13.74	 
x(1,0) = 10.56	 x(1,1) = 4.52	 x(1,2) = 13.56	 
x(2,0) = 21.82	 x(2,1) = 7.44	 x(2,2) = 14.44	 
y(0,1,0) = 0.00	 y(1,0,0) = 1.00	 
y(0,2,0) = 0.61	 y(2,0,0) = 0.39	 
y(1,2,0) = 0.46	 y(2,1,0) = 0.54	 
y(0,1,1) = 0.33	 y(1,0,1) = 0.67	 
y(0,2,1) = 0.57	 y(2,0,1) = 0.43	 
y(1,2,1) = 0.57	 y(2,1,1) = 0.43	 
y(0,1,2) = 0.71	 y(1,0,2) = 0.29	 
y(0,2,2) = 0.50	 y(2,0,2) = 0.50	 
y(1,2,2) = 0.64	 y(2,1,2) = 0.36	 
obj:  0.9999999999999996
erro
[(0, 1), (0, 2), (2, 1), (2, 0), (2, 2), (1, 0), (1, 1)]
cliques:  0 mip: 92
C:  26.000000000000004
x(0,0) = 24.20	 x(0,1) = 4.90	 x(0,2) = 13.67	 
x(1,0) = 10.32	 x(1,1) = 5.34	 x(1,2) = 13.32	 
x(2,0) = 22.11	 x(2,1) = 7.82	 x(2,2) = 14.82	 
y(0,1,0) = 0.00	 y(1,0,0) = 1.00	 
y(0,2,0) = 0.40	 y(2,0,0) = 0.60	 
y(1,2,0) = 0.81	 y(2,1,0) = 0.19	 
y(0,1,1) = 0.41	 y(1,0,1) = 0.59	 
y(0,2,1) = 0.58	 y(2,0,1) = 0.42	 
y(1,2,1) = 0.56	 y(2,1,1) = 0.44	 
y(0,1,2) = 0.71	 y(1,0,2) = 0.29	 
y(0,2,2) = 0.54	 y(2,0,2) = 0.46	 
y(1,2,2) = 0.67	 y(2,1,2) = 0.33	 
obj:  1.0507777365065025
erro
[(0, 1), (0, 2), (2, 1), (2, 2), (1, 1)]
cliques:  0 mip: 95
C:  26.000000000000004
x(0,0) = 24.01	 x(0,1) = 7.27	 x(0,2) = 14.97	 
x(1,0) = 10.42	 x(1,1) = 5.01	 x(1,2) = 13.42	 
x(2,0) = 18.63	 x(2,1) = 4.86	 x(2,2) = 12.38	 
y(0,1,0) = 0.00	 y(1,0,0) = 1.00	 
y(0,2,0) = 0.49	 y(2,0,0) = 0.51	 
y(1,2,0) = 0.85	 y(2,1,0) = 0.15	 
y(0,1,1) = 0.32	 y(1,0,1) = 0.68	 
y(0,2,1) = 0.29	 y(2,0,1) = 0.71	 
y(1,2,1) = 0.50	 y(2,1,1) = 0.50	 
y(0,1,2) = 0.50	 y(1,0,2) = 0.50	 
y(0,2,2) = 0.26	 y(2,0,2) = 0.74	 
y(1,2,2) = 0.69	 y(2,1,2) = 0.31	 
obj:  0.9999999999999998
erro
[(1, 2), (0, 1), (0, 0), (0, 2), (2, 1), (2, 0), (1, 1)]
cliques:  0 mip: 0
iterações: 14 cortes cliques encontrados: 4 mip: 1075 objective:  26.000000000000004
Coin0506I Presolve 65 (-61) rows, 39 (-25) columns and 202 (-86) elements
Clp1000I sum of infeasibilities 3.24924e-06 - average 4.99884e-08, 0 fixed columns
Coin0506I Presolve 65 (0) rows, 39 (0) columns and 202 (0) elements
Clp0029I End of values pass after 39 iterations
Clp0000I Optimal - objective value 15
Clp0000I Optimal - objective value 15
Coin0511I After Postsolve, objective 15, infeasibilities - dual 0 (0), primal 0 (0)
Clp0000I Optimal - objective value 15
Clp0000I Optimal - objective value 15
Clp0000I Optimal - objective value 15
Coin0511I After Postsolve, objective 15, infeasibilities - dual 0 (0), primal 0 (0)
Clp0032I Optimal objective 15 - 0 iterations time 0.002, Presolve 0.00, Idiot 0.00
Coin3009W Conflict graph built in 0.000 seconds, density: 0.147%
